--Link1--
%chk=molecule
#HF/6-31G* SCF=tight Test Pop=MK iop(6/33=2) iop(6/42=6) opt
# iop(6/50=1)

remark line goes here

0   1
    H    2.0000000000        1.0000000000       -0.0000000000     
    C    2.0000000000        2.0900000000        0.0000000000     
    H    1.4860000000        2.4540000000        0.8900000000     
    H    1.4860000000        2.4540000000       -0.8900000000     
    C    3.4270000000        2.6410000000       -0.0000000000     
    O    4.3910000000        1.8770000000       -0.0000000000     
    N    3.5550000000        3.9700000000       -0.0000000000     
    H    2.7330000000        4.5560000000       -0.0000000000     
    C    4.8530000000        4.6140000000       -0.0000000000     
    H    5.4080000000        4.3160000000        0.8900000000     
    C    5.6610000000        4.2210000000       -1.2320000000     
    H    5.1230000000        4.5210000000       -2.1310000000     
    H    6.6300000000        4.7190000000       -1.2060000000     
    H    5.8090000000        3.1410000000       -1.2410000000     
    C    4.7130000000        6.1290000000        0.0000000000     
    O    3.6010000000        6.6530000000        0.0000000000     
    N    5.8460000000        6.8350000000        0.0000000000     
    H    6.7370000000        6.3590000000        0.0000000000     
    C    5.8460000000        8.2840000000        0.0000000000     
    H    4.8190000000        8.6480000000        0.0000000000     
    H    6.3600000000        8.6480000000        0.8900000000     
    H    6.3600000000        8.6480000000       -0.8900000000     

output.gesp

output.gesp


